c strEdges: 189  randomEdges: 441 
c degrees:  2  3 
c girth: 10 max: 8.032766  
c Hgirth mixed MAXCUT instance
c generated from an undirected graph
c to solve unweighted MaxCut
p cnf 140 1260
119 78 0
-119 -78 0
119 63 0
-119 -63 0
119 13 0
-119 -13 0
101 126 0
-101 -126 0
101 78 0
-101 -78 0
101 86 0
-101 -86 0
30 34 0
-30 -34 0
30 128 0
-30 -128 0
30 29 0
-30 -29 0
108 124 0
-108 -124 0
108 110 0
-108 -110 0
108 37 0
-108 -37 0
87 36 0
-87 -36 0
87 73 0
-87 -73 0
87 88 0
-87 -88 0
20 114 0
-20 -114 0
20 64 0
-20 -64 0
83 105 0
-83 -105 0
83 22 0
-83 -22 0
123 60 0
-123 -60 0
123 105 0
-123 -105 0
84 130 0
-84 -130 0
84 135 0
-84 -135 0
69 117 0
-69 -117 0
69 103 0
-69 -103 0
69 1 0
-69 -1 0
56 7 0
-56 -7 0
56 78 0
-56 -78 0
92 55 0
-92 -55 0
92 66 0
-92 -66 0
92 138 0
-92 -138 0
17 24 0
-17 -24 0
17 31 0
-17 -31 0
17 27 0
-17 -27 0
80 128 0
-80 -128 0
80 40 0
-80 -40 0
80 35 0
-80 -35 0
45 8 0
-45 -8 0
45 60 0
-45 -60 0
45 104 0
-45 -104 0
93 63 0
-93 -63 0
93 8 0
-93 -8 0
93 128 0
-93 -128 0
54 111 0
-54 -111 0
54 15 0
-54 -15 0
54 52 0
-54 -52 0
133 57 0
-133 -57 0
133 7 0
-133 -7 0
133 117 0
-133 -117 0
99 135 0
-99 -135 0
99 32 0
-99 -32 0
68 95 0
-68 -95 0
68 1 0
-68 -1 0
68 114 0
-68 -114 0
102 40 0
-102 -40 0
102 91 0
-102 -91 0
47 97 0
-47 -97 0
47 52 0
-47 -52 0
47 85 0
-47 -85 0
137 103 0
-137 -103 0
137 91 0
-137 -91 0
137 118 0
-137 -118 0
100 75 0
-100 -75 0
100 136 0
-100 -136 0
100 53 0
-100 -53 0
18 33 0
-18 -33 0
18 72 0
-18 -72 0
39 106 0
-39 -106 0
39 94 0
-39 -94 0
39 70 0
-39 -70 0
113 118 0
-113 -118 0
113 138 0
-113 -138 0
5 50 0
-5 -50 0
5 126 0
-5 -126 0
5 22 0
-5 -22 0
129 104 0
-129 -104 0
129 111 0
-129 -111 0
131 31 0
-131 -31 0
131 33 0
-131 -33 0
89 15 0
-89 -15 0
89 41 0
-89 -41 0
96 90 0
-96 -90 0
96 95 0
-96 -95 0
96 94 0
-96 -94 0
112 136 0
-112 -136 0
112 95 0
-112 -95 0
112 126 0
-112 -126 0
46 22 0
-46 -22 0
46 32 0
-46 -32 0
46 40 0
-46 -40 0
121 35 0
-121 -35 0
121 75 0
-121 -75 0
121 85 0
-121 -85 0
59 41 0
-59 -41 0
59 106 0
-59 -106 0
59 24 0
-59 -24 0
16 52 0
-16 -52 0
16 90 0
-16 -90 0
115 88 0
-115 -88 0
115 43 0
-115 -43 0
19 66 0
-19 -66 0
19 34 0
-19 -34 0
19 64 0
-19 -64 0
12 138 0
-12 -138 0
12 73 0
-12 -73 0
12 135 0
-12 -135 0
74 94 0
-74 -94 0
74 13 0
-74 -13 0
74 67 0
-74 -67 0
109 79 0
-109 -79 0
109 130 0
-109 -130 0
71 43 0
-71 -43 0
71 77 0
-71 -77 0
122 110 0
-122 -110 0
122 36 0
-122 -36 0
122 90 0
-122 -90 0
51 32 0
-51 -32 0
51 70 0
-51 -70 0
51 104 0
-51 -104 0
76 1 0
-76 -1 0
76 60 0
-76 -60 0
76 124 0
-76 -124 0
14 67 0
-14 -67 0
14 75 0
-14 -75 0
14 79 0
-14 -79 0
26 85 0
-26 -85 0
26 120 0
-26 -120 0
26 55 0
-26 -55 0
65 77 0
-65 -77 0
65 33 0
-65 -33 0
2 73 0
-2 -73 0
2 31 0
-2 -31 0
2 8 0
-2 -8 0
10 27 0
-10 -27 0
10 97 0
-10 -97 0
10 103 0
-10 -103 0
125 44 0
-125 -44 0
125 61 0
-125 -61 0
125 9 0
-125 -9 0
82 86 0
-82 -86 0
82 116 0
-82 -116 0
82 88 0
-82 -88 0
127 53 0
-127 -53 0
127 118 0
-127 -118 0
127 28 0
-127 -28 0
140 13 0
-140 -13 0
140 124 0
-140 -124 0
23 72 0
-23 -72 0
23 3 0
-23 -3 0
11 9 0
-11 -9 0
11 86 0
-11 -86 0
62 3 0
-62 -3 0
62 37 0
-62 -37 0
62 42 0
-62 -42 0
107 37 0
-107 -37 0
107 9 0
-107 -9 0
107 97 0
-107 -97 0
58 28 0
-58 -28 0
58 77 0
-58 -77 0
58 7 0
-58 -7 0
132 70 0
-132 -70 0
132 42 0
-132 -42 0
38 48 0
-38 -48 0
38 50 0
-38 -50 0
38 15 0
-38 -15 0
6 64 0
-6 -64 0
6 48 0
-6 -48 0
6 49 0
-6 -49 0
98 42 0
-98 -42 0
98 114 0
-98 -114 0
98 43 0
-98 -43 0
21 29 0
-21 -29 0
21 130 0
-21 -130 0
21 57 0
-21 -57 0
25 61 0
-25 -61 0
25 111 0
-25 -111 0
25 28 0
-25 -28 0
4 120 0
-4 -120 0
4 105 0
-4 -105 0
4 3 0
-4 -3 0
139 49 0
-139 -49 0
139 79 0
-139 -79 0
139 72 0
-139 -72 0
134 91 0
-134 -91 0
134 44 0
-134 -44 0
134 49 0
-134 -49 0
81 116 0
-81 -116 0
81 29 0
-81 -29 0
81 41 0
-81 -41 0
121 134 0
-121 -134 0
121 37 0
-121 -37 0
4 41 0
-4 -41 0
128 111 0
-128 -111 0
76 33 0
-76 -33 0
109 132 0
-109 -132 0
140 86 0
-140 -86 0
137 107 0
-137 -107 0
5 25 0
-5 -25 0
51 22 0
-51 -22 0
10 61 0
-10 -61 0
10 104 0
-10 -104 0
39 138 0
-39 -138 0
138 72 0
-138 -72 0
86 61 0
-86 -61 0
18 53 0
-18 -53 0
129 50 0
-129 -50 0
99 31 0
-99 -31 0
54 86 0
-54 -86 0
68 137 0
-68 -137 0
106 64 0
-106 -64 0
61 49 0
-61 -49 0
123 97 0
-123 -97 0
96 8 0
-96 -8 0
94 64 0
-94 -64 0
37 116 0
-37 -116 0
38 103 0
-38 -103 0
14 66 0
-14 -66 0
133 71 0
-133 -71 0
80 21 0
-80 -21 0
71 90 0
-71 -90 0
37 91 0
-37 -91 0
59 95 0
-59 -95 0
133 120 0
-133 -120 0
134 33 0
-134 -33 0
62 66 0
-62 -66 0
132 33 0
-132 -33 0
68 37 0
-68 -37 0
2 55 0
-2 -55 0
136 120 0
-136 -120 0
8 66 0
-8 -66 0
80 13 0
-80 -13 0
87 54 0
-87 -54 0
128 57 0
-128 -57 0
32 3 0
-32 -3 0
74 103 0
-74 -103 0
75 118 0
-75 -118 0
140 9 0
-140 -9 0
112 140 0
-112 -140 0
51 37 0
-51 -37 0
99 126 0
-99 -126 0
47 38 0
-47 -38 0
100 128 0
-100 -128 0
112 75 0
-112 -75 0
6 24 0
-6 -24 0
89 104 0
-89 -104 0
81 95 0
-81 -95 0
24 48 0
-24 -48 0
101 9 0
-101 -9 0
40 1 0
-40 -1 0
20 7 0
-20 -7 0
105 120 0
-105 -120 0
121 114 0
-121 -114 0
30 11 0
-30 -11 0
126 13 0
-126 -13 0
39 2 0
-39 -2 0
78 61 0
-78 -61 0
6 50 0
-6 -50 0
23 34 0
-23 -34 0
109 22 0
-109 -22 0
25 94 0
-25 -94 0
92 75 0
-92 -75 0
68 61 0
-68 -61 0
2 91 0
-2 -91 0
83 48 0
-83 -48 0
47 103 0
-47 -103 0
17 51 0
-17 -51 0
83 121 0
-83 -121 0
59 109 0
-59 -109 0
140 90 0
-140 -90 0
93 106 0
-93 -106 0
6 21 0
-6 -21 0
76 3 0
-76 -3 0
10 124 0
-10 -124 0
87 90 0
-87 -90 0
18 85 0
-18 -85 0
54 40 0
-54 -40 0
18 43 0
-18 -43 0
56 106 0
-56 -106 0
78 70 0
-78 -70 0
43 48 0
-43 -48 0
103 42 0
-103 -42 0
18 61 0
-18 -61 0
7 27 0
-7 -27 0
130 85 0
-130 -85 0
2 44 0
-2 -44 0
109 48 0
-109 -48 0
102 36 0
-102 -36 0
63 37 0
-63 -37 0
105 88 0
-105 -88 0
30 103 0
-30 -103 0
6 136 0
-6 -136 0
115 10 0
-115 -10 0
10 81 0
-10 -81 0
106 43 0
-106 -43 0
40 28 0
-40 -28 0
83 37 0
-83 -37 0
68 67 0
-68 -67 0
17 104 0
-17 -104 0
59 77 0
-59 -77 0
36 28 0
-36 -28 0
56 74 0
-56 -74 0
8 111 0
-8 -111 0
76 66 0
-76 -66 0
106 138 0
-106 -138 0
127 22 0
-127 -22 0
5 86 0
-5 -86 0
33 110 0
-33 -110 0
62 6 0
-62 -6 0
83 100 0
-83 -100 0
60 90 0
-60 -90 0
96 120 0
-96 -120 0
89 27 0
-89 -27 0
76 139 0
-76 -139 0
101 71 0
-101 -71 0
108 25 0
-108 -25 0
73 28 0
-73 -28 0
95 79 0
-95 -79 0
94 79 0
-94 -79 0
80 9 0
-80 -9 0
16 24 0
-16 -24 0
129 59 0
-129 -59 0
118 50 0
-118 -50 0
133 82 0
-133 -82 0
101 112 0
-101 -112 0
51 52 0
-51 -52 0
121 64 0
-121 -64 0
18 109 0
-18 -109 0
133 47 0
-133 -47 0
84 33 0
-84 -33 0
80 7 0
-80 -7 0
30 62 0
-30 -62 0
45 51 0
-45 -51 0
100 9 0
-100 -9 0
21 8 0
-21 -8 0
81 72 0
-81 -72 0
101 55 0
-101 -55 0
79 77 0
-79 -77 0
75 31 0
-75 -31 0
87 92 0
-87 -92 0
74 106 0
-74 -106 0
45 76 0
-45 -76 0
125 60 0
-125 -60 0
83 125 0
-83 -125 0
127 58 0
-127 -58 0
46 28 0
-46 -28 0
112 60 0
-112 -60 0
69 74 0
-69 -74 0
59 23 0
-59 -23 0
25 128 0
-25 -128 0
117 48 0
-117 -48 0
108 67 0
-108 -67 0
133 110 0
-133 -110 0
134 8 0
-134 -8 0
17 1 0
-17 -1 0
92 99 0
-92 -99 0
121 122 0
-121 -122 0
114 57 0
-114 -57 0
5 120 0
-5 -120 0
113 135 0
-113 -135 0
119 19 0
-119 -19 0
45 138 0
-45 -138 0
12 82 0
-12 -82 0
112 29 0
-112 -29 0
78 50 0
-78 -50 0
131 12 0
-131 -12 0
73 13 0
-73 -13 0
23 21 0
-23 -21 0
135 33 0
-135 -33 0
107 75 0
-107 -75 0
88 73 0
-88 -73 0
101 136 0
-101 -136 0
113 114 0
-113 -114 0
109 86 0
-109 -86 0
112 14 0
-112 -14 0
131 60 0
-131 -60 0
54 112 0
-54 -112 0
18 48 0
-18 -48 0
107 64 0
-107 -64 0
96 85 0
-96 -85 0
115 61 0
-115 -61 0
45 122 0
-45 -122 0
131 109 0
-131 -109 0
112 57 0
-112 -57 0
140 97 0
-140 -97 0
25 106 0
-25 -106 0
16 28 0
-16 -28 0
105 48 0
-105 -48 0
35 67 0
-35 -67 0
10 82 0
-10 -82 0
34 136 0
-34 -136 0
121 72 0
-121 -72 0
110 67 0
-110 -67 0
54 98 0
-54 -98 0
100 105 0
-100 -105 0
54 41 0
-54 -41 0
23 61 0
-23 -61 0
133 5 0
-133 -5 0
108 27 0
-108 -27 0
12 22 0
-12 -22 0
92 45 0
-92 -45 0
93 36 0
-93 -36 0
93 9 0
-93 -9 0
10 48 0
-10 -48 0
128 72 0
-128 -72 0
99 71 0
-99 -71 0
133 91 0
-133 -91 0
80 65 0
-80 -65 0
84 29 0
-84 -29 0
88 86 0
-88 -86 0
87 6 0
-87 -6 0
46 42 0
-46 -42 0
139 53 0
-139 -53 0
113 38 0
-113 -38 0
127 34 0
-127 -34 0
84 121 0
-84 -121 0
76 98 0
-76 -98 0
56 59 0
-56 -59 0
76 55 0
-76 -55 0
119 107 0
-119 -107 0
81 49 0
-81 -49 0
57 77 0
-57 -77 0
17 88 0
-17 -88 0
17 26 0
-17 -26 0
11 38 0
-11 -38 0
41 64 0
-41 -64 0
122 111 0
-122 -111 0
40 66 0
-40 -66 0
114 88 0
-114 -88 0
38 81 0
-38 -81 0
57 110 0
-57 -110 0
59 33 0
-59 -33 0
118 90 0
-118 -90 0
71 130 0
-71 -130 0
36 110 0
-36 -110 0
82 127 0
-82 -127 0
100 3 0
-100 -3 0
123 44 0
-123 -44 0
97 43 0
-97 -43 0
60 41 0
-60 -41 0
8 72 0
-8 -72 0
80 127 0
-80 -127 0
45 1 0
-45 -1 0
102 47 0
-102 -47 0
84 98 0
-84 -98 0
70 116 0
-70 -116 0
56 99 0
-56 -99 0
136 28 0
-136 -28 0
50 120 0
-50 -120 0
134 37 0
-134 -37 0
33 88 0
-33 -88 0
127 44 0
-127 -44 0
87 2 0
-87 -2 0
38 111 0
-38 -111 0
25 52 0
-25 -52 0
133 125 0
-133 -125 0
121 16 0
-121 -16 0
87 34 0
-87 -34 0
19 124 0
-19 -124 0
42 49 0
-42 -49 0
21 64 0
-21 -64 0
47 13 0
-47 -13 0
18 121 0
-18 -121 0
136 48 0
-136 -48 0
83 76 0
-83 -76 0
18 120 0
-18 -120 0
87 71 0
-87 -71 0
115 28 0
-115 -28 0
27 61 0
-27 -61 0
113 23 0
-113 -23 0
58 43 0
-58 -43 0
107 48 0
-107 -48 0
82 130 0
-82 -130 0
96 55 0
-96 -55 0
54 71 0
-54 -71 0
59 116 0
-59 -116 0
27 72 0
-27 -72 0
138 44 0
-138 -44 0
33 52 0
-33 -52 0
99 102 0
-99 -102 0
119 10 0
-119 -10 0
93 129 0
-93 -129 0
40 110 0
-40 -110 0
46 115 0
-46 -115 0
139 116 0
-139 -116 0
114 43 0
-114 -43 0
63 104 0
-63 -104 0
17 113 0
-17 -113 0
18 118 0
-18 -118 0
26 78 0
-26 -78 0
45 82 0
-45 -82 0
133 95 0
-133 -95 0
46 59 0
-46 -59 0
68 65 0
-68 -65 0
54 65 0
-54 -65 0
119 105 0
-119 -105 0
125 7 0
-125 -7 0
46 107 0
-46 -107 0
94 27 0
-94 -27 0
91 116 0
-91 -116 0
121 86 0
-121 -86 0
66 42 0
-66 -42 0
99 8 0
-99 -8 0
26 53 0
-26 -53 0
66 53 0
-66 -53 0
63 67 0
-63 -67 0
131 95 0
-131 -95 0
69 19 0
-69 -19 0
113 44 0
-113 -44 0
137 117 0
-137 -117 0
20 51 0
-20 -51 0
71 61 0
-71 -61 0
45 59 0
-45 -59 0
76 77 0
-76 -77 0
118 86 0
-118 -86 0
99 63 0
-99 -63 0
92 126 0
-92 -126 0
106 49 0
-106 -49 0
87 65 0
-87 -65 0
62 9 0
-62 -9 0
129 124 0
-129 -124 0
7 138 0
-7 -138 0
107 25 0
-107 -25 0
95 43 0
-95 -43 0
53 49 0
-53 -49 0
99 46 0
-99 -46 0
124 36 0
-124 -36 0
54 126 0
-54 -126 0
46 134 0
-46 -134 0
59 120 0
-59 -120 0
43 77 0
-43 -77 0
80 50 0
-80 -50 0
95 53 0
-95 -53 0
127 94 0
-127 -94 0
20 43 0
-20 -43 0
30 138 0
-30 -138 0
113 77 0
-113 -77 0
114 85 0
-114 -85 0
121 14 0
-121 -14 0
60 70 0
-60 -70 0
76 11 0
-76 -11 0
31 66 0
-31 -66 0
18 126 0
-18 -126 0
22 9 0
-22 -9 0
100 27 0
-100 -27 0
138 53 0
-138 -53 0
51 58 0
-51 -58 0
59 42 0
-59 -42 0
17 120 0
-17 -120 0
26 67 0
-26 -67 0
94 43 0
-94 -43 0
47 33 0
-47 -33 0
137 64 0
-137 -64 0
135 66 0
-135 -66 0
82 67 0
-82 -67 0
2 114 0
-2 -114 0
133 138 0
-133 -138 0
133 35 0
-133 -35 0
111 42 0
-111 -42 0
109 126 0
-109 -126 0
126 53 0
-126 -53 0
47 55 0
-47 -55 0
55 136 0
-55 -136 0
89 43 0
-89 -43 0
60 116 0
-60 -116 0
117 97 0
-117 -97 0
108 133 0
-108 -133 0
21 117 0
-21 -117 0
18 71 0
-18 -71 0
68 126 0
-68 -126 0
83 34 0
-83 -34 0
46 111 0
-46 -111 0
32 70 0
-32 -70 0
99 79 0
-99 -79 0
92 35 0
-92 -35 0
124 64 0
-124 -64 0
74 29 0
-74 -29 0
93 52 0
-93 -52 0
115 130 0
-115 -130 0
31 28 0
-31 -28 0
30 23 0
-30 -23 0
13 64 0
-13 -64 0
80 81 0
-80 -81 0
22 67 0
-22 -67 0
127 1 0
-127 -1 0
101 114 0
-101 -114 0
131 67 0
-131 -67 0
127 21 0
-127 -21 0
131 111 0
-131 -111 0
108 137 0
-108 -137 0
112 8 0
-112 -8 0
109 128 0
-109 -128 0
17 52 0
-17 -52 0
6 61 0
-6 -61 0
46 139 0
-46 -139 0
130 95 0
-130 -95 0
101 123 0
-101 -123 0
82 105 0
-82 -105 0
62 49 0
-62 -49 0
108 60 0
-108 -60 0
124 91 0
-124 -91 0
54 47 0
-54 -47 0
139 61 0
-139 -61 0
84 115 0
-84 -115 0
137 19 0
-137 -19 0
74 135 0
-74 -135 0
27 91 0
-27 -91 0
89 31 0
-89 -31 0
56 67 0
-56 -67 0
126 32 0
-126 -32 0
108 69 0
-108 -69 0
8 49 0
-8 -49 0
89 75 0
-89 -75 0
2 1 0
-2 -1 0
89 116 0
-89 -116 0
31 72 0
-31 -72 0
18 73 0
-18 -73 0
30 21 0
-30 -21 0
135 67 0
-135 -67 0
71 78 0
-71 -78 0
89 12 0
-89 -12 0
122 11 0
-122 -11 0
128 116 0
-128 -116 0
58 105 0
-58 -105 0
108 88 0
-108 -88 0
100 117 0
-100 -117 0
57 138 0
-57 -138 0
18 44 0
-18 -44 0
6 130 0
-6 -130 0
125 138 0
-125 -138 0
100 57 0
-100 -57 0
